UE = 1..3;
TYPE = 1..3;
PROF = 1..2;
GROUPE = 1..6;
CRENEAU = 1..6*5;

volume = [|2,2,3|2,2,3|2,2,3|];
profs = [|1,1,1|2,2,2|2,2,2|];
dependances_groupes = [|false,true,true,true,true,true|false,false,false,true,true,false|false,false,false,false,true,true|false,false,false,false,false,false|false,false,false,false,false,false|false,false,false,false,false,false|];
